NAME : cgl_81.6816.tour
COMMENT : Length = 6816
COMMENT : Found by LKH-3 [Keld Helsgaun] Thu Jun 26 21:26:50 2025
TYPE : TOUR
DIMENSION : 82
TOUR_SECTION
75
76
73
74
81
79
77
78
80
6
4
5
2
3
28
34
31
30
29
32
25
33
27
26
35
18
19
20
36
39
38
37
21
1
22
23
24
17
16
15
9
7
8
10
40
12
48
47
11
14
13
43
41
42
44
46
45
49
50
51
53
52
82
66
67
65
68
64
63
62
69
61
60
59
70
71
72
57
58
56
55
54
-1
EOF
